149730
58,65,9,26,27,75,42,78,90,59,95,77,93,2,104,100,37,103,10,40,66,94,53,70,35,38,48,36,69,17,31,62,6,52,83,32,1,72,47,84,30,97,12,87,68,5,39,55,19,15,63,89,16,20,21,61,24,44,85,45,76,80,41,18,98,67,49,25,33,82,56,79,88,92,11,22,91,8,105,7,96,51,64,54,28,29,4,81,71,99,50,34,74,14,3,102,60,46,13,73,101,23,57,0,86,43,58